TIP.Original.Linear/tip2015_weird_nat_mul3_comm12.smt2
(set-logic HORN)
(declare-datatypes ((Nat_316 0)) (((zero_62 ) (succ_61 (p_171 Nat_316)))))
(declare-fun diseqNat_316 (Nat_316 Nat_316) Bool)
(declare-fun p_172 (Nat_316 Nat_316) Bool)
(declare-fun iszero_61 (Nat_316) Bool)
(declare-fun issucc_61 (Nat_316) Bool)
(assert (forall ((x_27229 Nat_316))
	(p_172 x_27229 (succ_61 x_27229))))
(assert (iszero_61 zero_62))
(assert (forall ((x_27231 Nat_316))
	(issucc_61 (succ_61 x_27231))))
(assert (forall ((x_27232 Nat_316))
	(diseqNat_316 zero_62 (succ_61 x_27232))))
(assert (forall ((x_27233 Nat_316))
	(diseqNat_316 (succ_61 x_27233) zero_62)))
(assert (forall ((x_27234 Nat_316) (x_27235 Nat_316))
	(=> (diseqNat_316 x_27234 x_27235)
	    (diseqNat_316 (succ_61 x_27234) (succ_61 x_27235)))))
(declare-fun plus_57 (Nat_316 Nat_316 Nat_316) Bool)
(assert (forall ((x_27133 Nat_316) (z_1037 Nat_316) (y_1085 Nat_316))
	(=> (plus_57 x_27133 z_1037 y_1085)
	    (plus_57 (succ_61 x_27133) (succ_61 z_1037) y_1085))))
(assert (forall ((x_27134 Nat_316))
	(plus_57 x_27134 zero_62 x_27134)))
(declare-fun add_193 (Nat_316 Nat_316 Nat_316 Nat_316) Bool)
(assert (forall ((x_27135 Nat_316) (x_27136 Nat_316) (x_27121 Nat_316) (y_1086 Nat_316) (z_1038 Nat_316))
	(=>	(and (add_193 x_27136 x_27121 y_1086 z_1038)
			(plus_57 x_27135 (succ_61 zero_62) x_27136))
		(add_193 x_27135 (succ_61 x_27121) y_1086 z_1038))))
(assert (forall ((x_27138 Nat_316) (x_27139 Nat_316) (x_27122 Nat_316) (z_1038 Nat_316))
	(=>	(and (add_193 x_27139 zero_62 x_27122 z_1038)
			(plus_57 x_27138 (succ_61 zero_62) x_27139))
		(add_193 x_27138 zero_62 (succ_61 x_27122) z_1038))))
(assert (forall ((x_27141 Nat_316))
	(add_193 x_27141 zero_62 zero_62 x_27141)))
(declare-fun mul_2 (Nat_316 Nat_316 Nat_316 Nat_316) Bool)
(assert (forall ((x_27142 Nat_316) (x_27143 Nat_316) (x_27144 Nat_316) (x_27145 Nat_316) (x_27146 Nat_316) (x_27147 Nat_316) (x_27148 Nat_316) (fail_11 Nat_316))
	(=>	(and (mul_2 x_27142 zero_62 zero_62 zero_62)
			(mul_2 x_27143 (succ_61 zero_62) zero_62 zero_62)
			(mul_2 x_27144 zero_62 (succ_61 zero_62) zero_62)
			(mul_2 x_27145 zero_62 zero_62 (succ_61 zero_62))
			(add_193 x_27146 x_27143 x_27144 x_27145)
			(add_193 x_27147 zero_62 zero_62 zero_62)
			(add_193 x_27148 x_27142 x_27146 x_27147)
			(plus_57 fail_11 (succ_61 zero_62) x_27148))
		(mul_2 (succ_61 zero_62) (succ_61 zero_62) (succ_61 zero_62) (succ_61 zero_62)))))
(assert (forall ((x_27151 Nat_316) (x_27152 Nat_316) (x_27153 Nat_316) (x_27154 Nat_316) (x_27155 Nat_316) (x_27156 Nat_316) (x_27157 Nat_316) (fail_11 Nat_316) (x_27126 Nat_316) (x_27125 Nat_316) (x_27124 Nat_316))
	(=>	(and (diseqNat_316 x_27124 zero_62)
			(mul_2 x_27151 x_27124 x_27125 x_27126)
			(mul_2 x_27152 (succ_61 zero_62) x_27125 x_27126)
			(mul_2 x_27153 x_27124 (succ_61 zero_62) x_27126)
			(mul_2 x_27154 x_27124 x_27125 (succ_61 zero_62))
			(add_193 x_27155 x_27152 x_27153 x_27154)
			(add_193 x_27156 x_27124 x_27125 x_27126)
			(add_193 x_27157 x_27151 x_27155 x_27156)
			(plus_57 fail_11 (succ_61 zero_62) x_27157))
		(mul_2 fail_11 (succ_61 x_27124) (succ_61 x_27125) (succ_61 x_27126)))))
(assert (forall ((x_27160 Nat_316) (x_27161 Nat_316) (x_27162 Nat_316) (x_27163 Nat_316) (x_27164 Nat_316) (x_27165 Nat_316) (x_27166 Nat_316) (fail_11 Nat_316) (x_27126 Nat_316) (x_27125 Nat_316))
	(=>	(and (diseqNat_316 x_27125 zero_62)
			(mul_2 x_27160 zero_62 x_27125 x_27126)
			(mul_2 x_27161 (succ_61 zero_62) x_27125 x_27126)
			(mul_2 x_27162 zero_62 (succ_61 zero_62) x_27126)
			(mul_2 x_27163 zero_62 x_27125 (succ_61 zero_62))
			(add_193 x_27164 x_27161 x_27162 x_27163)
			(add_193 x_27165 zero_62 x_27125 x_27126)
			(add_193 x_27166 x_27160 x_27164 x_27165)
			(plus_57 fail_11 (succ_61 zero_62) x_27166))
		(mul_2 fail_11 (succ_61 zero_62) (succ_61 x_27125) (succ_61 x_27126)))))
(assert (forall ((x_27169 Nat_316) (x_27170 Nat_316) (x_27171 Nat_316) (x_27172 Nat_316) (x_27173 Nat_316) (x_27174 Nat_316) (x_27175 Nat_316) (fail_11 Nat_316) (x_27126 Nat_316) (x_27125 Nat_316) (x_27124 Nat_316))
	(=>	(and (diseqNat_316 x_27124 zero_62)
			(mul_2 x_27169 x_27124 x_27125 x_27126)
			(mul_2 x_27170 (succ_61 zero_62) x_27125 x_27126)
			(mul_2 x_27171 x_27124 (succ_61 zero_62) x_27126)
			(mul_2 x_27172 x_27124 x_27125 (succ_61 zero_62))
			(add_193 x_27173 x_27170 x_27171 x_27172)
			(add_193 x_27174 x_27124 x_27125 x_27126)
			(add_193 x_27175 x_27169 x_27173 x_27174)
			(plus_57 fail_11 (succ_61 zero_62) x_27175))
		(mul_2 fail_11 (succ_61 x_27124) (succ_61 x_27125) (succ_61 x_27126)))))
(assert (forall ((x_27178 Nat_316) (x_27179 Nat_316) (x_27180 Nat_316) (x_27181 Nat_316) (x_27182 Nat_316) (x_27183 Nat_316) (x_27184 Nat_316) (fail_11 Nat_316) (x_27126 Nat_316))
	(=>	(and (diseqNat_316 x_27126 zero_62)
			(mul_2 x_27178 zero_62 zero_62 x_27126)
			(mul_2 x_27179 (succ_61 zero_62) zero_62 x_27126)
			(mul_2 x_27180 zero_62 (succ_61 zero_62) x_27126)
			(mul_2 x_27181 zero_62 zero_62 (succ_61 zero_62))
			(add_193 x_27182 x_27179 x_27180 x_27181)
			(add_193 x_27183 zero_62 zero_62 x_27126)
			(add_193 x_27184 x_27178 x_27182 x_27183)
			(plus_57 fail_11 (succ_61 zero_62) x_27184))
		(mul_2 fail_11 (succ_61 zero_62) (succ_61 zero_62) (succ_61 x_27126)))))
(assert (forall ((x_27187 Nat_316) (x_27188 Nat_316) (x_27189 Nat_316) (x_27190 Nat_316) (x_27191 Nat_316) (x_27192 Nat_316) (x_27193 Nat_316) (fail_11 Nat_316) (x_27126 Nat_316) (x_27125 Nat_316) (x_27124 Nat_316))
	(=>	(and (diseqNat_316 x_27124 zero_62)
			(mul_2 x_27187 x_27124 x_27125 x_27126)
			(mul_2 x_27188 (succ_61 zero_62) x_27125 x_27126)
			(mul_2 x_27189 x_27124 (succ_61 zero_62) x_27126)
			(mul_2 x_27190 x_27124 x_27125 (succ_61 zero_62))
			(add_193 x_27191 x_27188 x_27189 x_27190)
			(add_193 x_27192 x_27124 x_27125 x_27126)
			(add_193 x_27193 x_27187 x_27191 x_27192)
			(plus_57 fail_11 (succ_61 zero_62) x_27193))
		(mul_2 fail_11 (succ_61 x_27124) (succ_61 x_27125) (succ_61 x_27126)))))
(assert (forall ((x_27196 Nat_316) (x_27197 Nat_316) (x_27198 Nat_316) (x_27199 Nat_316) (x_27200 Nat_316) (x_27201 Nat_316) (x_27202 Nat_316) (fail_11 Nat_316) (x_27126 Nat_316) (x_27125 Nat_316))
	(=>	(and (diseqNat_316 x_27125 zero_62)
			(mul_2 x_27196 zero_62 x_27125 x_27126)
			(mul_2 x_27197 (succ_61 zero_62) x_27125 x_27126)
			(mul_2 x_27198 zero_62 (succ_61 zero_62) x_27126)
			(mul_2 x_27199 zero_62 x_27125 (succ_61 zero_62))
			(add_193 x_27200 x_27197 x_27198 x_27199)
			(add_193 x_27201 zero_62 x_27125 x_27126)
			(add_193 x_27202 x_27196 x_27200 x_27201)
			(plus_57 fail_11 (succ_61 zero_62) x_27202))
		(mul_2 fail_11 (succ_61 zero_62) (succ_61 x_27125) (succ_61 x_27126)))))
(assert (forall ((x_27205 Nat_316) (x_27206 Nat_316) (x_27207 Nat_316) (x_27208 Nat_316) (x_27209 Nat_316) (x_27210 Nat_316) (x_27211 Nat_316) (fail_11 Nat_316) (x_27126 Nat_316) (x_27125 Nat_316) (x_27124 Nat_316))
	(=>	(and (diseqNat_316 x_27124 zero_62)
			(mul_2 x_27205 x_27124 x_27125 x_27126)
			(mul_2 x_27206 (succ_61 zero_62) x_27125 x_27126)
			(mul_2 x_27207 x_27124 (succ_61 zero_62) x_27126)
			(mul_2 x_27208 x_27124 x_27125 (succ_61 zero_62))
			(add_193 x_27209 x_27206 x_27207 x_27208)
			(add_193 x_27210 x_27124 x_27125 x_27126)
			(add_193 x_27211 x_27205 x_27209 x_27210)
			(plus_57 fail_11 (succ_61 zero_62) x_27211))
		(mul_2 fail_11 (succ_61 x_27124) (succ_61 x_27125) (succ_61 x_27126)))))
(assert (forall ((x_27125 Nat_316) (x_27124 Nat_316))
	(mul_2 zero_62 (succ_61 x_27124) (succ_61 x_27125) zero_62)))
(assert (forall ((x_27124 Nat_316) (z_1039 Nat_316))
	(mul_2 zero_62 (succ_61 x_27124) zero_62 z_1039)))
(assert (forall ((y_1087 Nat_316) (z_1039 Nat_316))
	(mul_2 zero_62 zero_62 y_1087 z_1039)))
(assert (forall ((x_27217 Nat_316) (x_27218 Nat_316) (x_27127 Nat_316) (y_1088 Nat_316) (z_1040 Nat_316))
	(=>	(and true
			(diseqNat_316 x_27217 x_27218)
			(mul_2 x_27217 x_27127 y_1088 z_1040)
			(mul_2 x_27218 y_1088 x_27127 z_1040))
		false)))
(assert (forall ((x_27219 Nat_316) (x_27220 Nat_316) (x_27221 Nat_316) (x_27222 Nat_316) (x_27128 Nat_316) (y_1089 Nat_316) (z_1041 Nat_316))
	(=>	(and true
			(diseqNat_316 x_27220 x_27222)
			(plus_57 x_27219 y_1089 z_1041)
			(plus_57 x_27220 x_27128 x_27219)
			(plus_57 x_27221 x_27128 y_1089)
			(plus_57 x_27222 x_27221 z_1041))
		false)))
(assert (forall ((x_27223 Nat_316) (x_27224 Nat_316) (x_27129 Nat_316) (y_1090 Nat_316))
	(=>	(and true
			(diseqNat_316 x_27223 x_27224)
			(plus_57 x_27223 x_27129 y_1090)
			(plus_57 x_27224 y_1090 x_27129))
		false)))
(assert (forall ((x_27225 Nat_316) (x_27130 Nat_316))
	(=>	(and true
			(diseqNat_316 x_27225 x_27130)
			(plus_57 x_27225 x_27130 zero_62))
		false)))
(assert (forall ((x_27226 Nat_316) (x_27131 Nat_316))
	(=>	(and true
			(diseqNat_316 x_27226 x_27131)
			(plus_57 x_27226 zero_62 x_27131))
		false)))
(check-sat)
